
Gurobi 6.5.2 (linux64) logging started Wed Aug 31 10:35:41 2016

Optimize a model with 201 rows, 3565 columns and 7131 nonzeros
Coefficient statistics:
  Matrix range    [1e+00, 2e+00]
  Objective range [1e+00, 1e+02]
  Bounds range    [1e+00, 1e+00]
  RHS range       [1e+00, 1e+00]
Found heuristic solution: objective 5448
Presolve removed 101 rows and 100 columns
Presolve time: 0.01s
Presolved: 100 rows, 3465 columns, 6930 nonzeros
Variable types: 0 continuous, 3465 integer (3465 binary)

Root relaxation: objective 9.950000e+02, 137 iterations, 0.00 seconds

    Nodes    |    Current Node    |     Objective Bounds      |     Work
 Expl Unexpl |  Obj  Depth IntInf | Incumbent    BestBd   Gap | It/Node Time

     0     0  995.00000    0    6 5448.00000  995.00000  81.7%     -    0s
H    0     0                    1031.0000000  995.00000  3.49%     -    0s
H    0     0                     998.0000000  995.00000  0.30%     -    0s
     0     0  995.50000    0    8  998.00000  995.50000  0.25%     -    0s
     0     0  997.00000    0    6  998.00000  997.00000  0.10%     -    0s

Explored 0 nodes (202 simplex iterations) in 0.04 seconds
Thread count was 8 (of 8 available processors)

Optimal solution found (tolerance 1.00e-04)
Best objective 9.980000000000e+02, best bound 9.980000000000e+02, gap 0.0%
